; benchmark generated from python API
(set-info :status unknown)
(declare-datatypes ((IntState 0)) (((Mk1 (val1 Int)) (Mk2 (val2 Int)))))
 (declare-fun c_main_~j~6 () Int)
(declare-fun c_main_~k~6 () Int)
(declare-fun c_main_~i~6 () Int)
(assert
 (let (($x60 (exists ((v_nnf_82_st IntState) (val!161 Int) )(let ((?x56 (val2 v_nnf_82_st)))
 (let (($x26 (<= ?x56 4)))
 (let (($x148 (and (<= (+ ?x56 4) c_main_~k~6) (<= c_main_~j~6 (+ (* 2 ?x56) 1)) $x26)))
 (let (($x52 (not (= v_nnf_82_st (Mk1 val!161)))))
 (and $x52 $x148))))))
 ))
 (let (($x163 (<= c_main_~i~6 3)))
 (let (($x92 (<= c_main_~i~6 4)))
 (let (($x81 (exists ((v_nnf_82 Int) )(let (($x91 (<= v_nnf_82 4)))
 (and (<= (+ v_nnf_82 4) c_main_~k~6) (<= c_main_~j~6 (+ (* 2 v_nnf_82) 1)) $x91)))
 ))
 (and (and $x163 $x81 $x92) (not (and $x163 $x60))))))))
(check-sat)
